(set-info :Origin "This instance was generated by: BanditFuzz-- an RL fuzzer for SMT solvers" )
(set-info :Author "Joe Scott, Fed Mora, Vijay Ganesh" )
(set-info :Contact "Joe Scott, joseph.scott@uwaterloo.ca")
; solvers/z3.sh
; 	time => 0.13541531562805176
; 	answer => err
; solvers/bitwuzla.sh
; 	time => 0.1257319450378418
; 	answer => err
; solvers/cvc4.sh
; 	time => 0.15363240242004395
; 	answer => err
(set-logic QF_BV)
(declare-const bool_0 Bool)
(declare-const bool_1 Bool)
(declare-const bool_2 Bool)
(declare-const bool_3 Bool)
(declare-const bool_4 Bool)
(declare-const bv_0 (_ BitVec 8))
(declare-const bv_1 (_ BitVec 8))
(declare-const bv_2 (_ BitVec 8))
(declare-const bv_3 (_ BitVec 8))
(declare-const bv_4 (_ BitVec 8))
(assert (bvsle (bvor (bvsrem bv_4 #x000000c1 ) (bvlshr #x00000077  #x000000ef )) (bvudiv (bvxor #x000000a2  bv_3) (bvlshr #x00000052  #x00000061 ))))
(assert (bvult (bvlshr (bvadd bv_0 #x00000032 ) (bvadd bv_4 bv_0)) (bvsdiv (bvor bv_4 bv_4) (bvor #x000000b3  #x000000ac ))))
(assert (bvult (bvand (bvor bv_2 bv_0) (bvurem bv_1 #x00000057 )) (bvadd (bvnand bv_1 bv_2) (bvnor #x000000c1  bv_0))))
(assert (bvslt (bvshl (bvsmod bv_1 bv_1) (bvnor bv_2 bv_2)) (bvxor (bvor #x00000073  #x00000077 ) (bvlshr bv_2 bv_4))))
(assert (bvult (bvshl (bvsmod bv_1 #x000000a3 ) (bvurem bv_1 bv_0)) (bvshl (bvnand bv_0 #x00000053 ) (bvashr #x00000030  bv_3))))
(check-sat)
(exit)
